p cnf 22 48
2 -10 -14 -21 0
2 -10 14 -20 0
-2 10 0
-2 -14 21 0
-2 14 20 0
3 -11 -15 -21 0
3 -11 15 -20 0
-3 11 0
-3 -15 21 0
-3 15 20 0
4 -12 -16 -21 0
4 -12 16 -20 0
-4 12 0
-4 -16 21 0
-4 16 20 0
5 -13 -17 -21 0
5 -13 17 -20 0
-5 13 0
-5 -17 21 0
-5 17 20 0
-6 10 -14 18 0
-6 10 14 19 0
6 -10 0
6 -14 -18 0
6 14 -19 0
-7 11 -15 18 0
-7 11 15 19 0
7 -11 0
7 -15 -18 0
7 15 -19 0
-8 12 -16 18 0
-8 12 16 19 0
8 -12 0
8 -16 -18 0
8 16 -19 0
9 13 -17 18 0
-9 -13 0
-9 17 0
-9 -18 0
-22 0
-2 0
-3 0
-4 0
-5 0
-6 0
-7 0
-8 0
9 0

